;; sequence(s): A269495
;; terms: 14 77 250 617 1286 2389 4082 6545 9982 14621 20714 28537 38390 50597 65506 83489 104942 130285 159962 194441
;; small program: ((loop(x * x, 2, 2 + x) - 2) - x) - x
;; fast program: 2 + loop((((x * x) * x) - 2) * x, 1, 2 + x)
(set-logic UFNIA)
(declare-fun f0 (Int) Int)
(declare-fun g0 () Int)
(declare-fun h0 (Int) Int)
(declare-fun u0 (Int Int) Int)
(declare-fun v0 (Int) Int)
(declare-fun small (Int) Int)
(declare-fun f1 (Int) Int)
(declare-fun g1 () Int)
(declare-fun h1 (Int) Int)
(declare-fun u1 (Int Int) Int)
(declare-fun v1 (Int) Int)
(declare-fun fast (Int) Int)
(assert (forall ((x Int)) (= (f0 x) (* x x))))
(assert (= g0 2))
(assert (forall ((x Int)) (= (h0 x) (+ 2 x))))
(assert (forall ((x Int) (y Int)) (= (u0 x y) (ite (<= x 0) y (f0 (u0 (- x 1) y))))))
(assert (forall ((x Int)) (= (v0 x) (u0 g0 (h0 x)))))
(assert (forall ((x Int)) (= (small x) (- (- (- (v0 x) 2) x) x))))
(assert (forall ((x Int)) (= (f1 x) (* (- (* (* x x) x) 2) x))))
(assert (= g1 1))
(assert (forall ((x Int)) (= (h1 x) (+ 2 x))))
(assert (forall ((x Int) (y Int)) (= (u1 x y) (ite (<= x 0) y (f1 (u1 (- x 1) y))))))
(assert (forall ((x Int)) (= (v1 x) (u1 g1 (h1 x)))))
(assert (forall ((x Int)) (= (fast x) (+ 2 (v1 x)))))
(assert (exists ((c Int)) (and (>= c 0) (not (= (small c) (fast c))))))
(check-sat)
